p cnf 160 1082
17 0
122 0
67 0
84 0
53 0
6 0
-1 -81 0
-2 -82 0
-3 -83 0
-4 -84 0
-5 -85 0
-6 -86 0
-7 -87 0
-8 -88 0
-1 -49 0
-2 -50 0
-3 -51 0
-4 -52 0
-5 -53 0
-6 -54 0
-7 -55 0
-8 -56 0
-1 -129 0
-2 -130 0
-3 -131 0
-4 -132 0
-5 -133 0
-6 -134 0
-7 -135 0
-8 -136 0
-1 -65 0
-2 -66 0
-3 -67 0
-4 -68 0
-5 -69 0
-6 -70 0
-7 -71 0
-8 -72 0
-1 -17 0
-2 -18 0
-3 -19 0
-4 -20 0
-5 -21 0
-6 -22 0
-7 -23 0
-8 -24 0
-1 -9 0
-2 -10 0
-3 -11 0
-4 -12 0
-5 -13 0
-6 -14 0
-7 -15 0
-8 -16 0
-1 -113 0
-2 -114 0
-3 -115 0
-4 -116 0
-5 -117 0
-6 -118 0
-7 -119 0
-8 -120 0
-1 -33 0
-2 -34 0
-3 -35 0
-4 -36 0
-5 -37 0
-6 -38 0
-7 -39 0
-8 -40 0
-1 -25 0
-2 -26 0
-3 -27 0
-4 -28 0
-5 -29 0
-6 -30 0
-7 -31 0
-8 -32 0
-1 -97 0
-2 -98 0
-3 -99 0
-4 -100 0
-5 -101 0
-6 -102 0
-7 -103 0
-8 -104 0
-1 -137 0
-2 -138 0
-3 -139 0
-4 -140 0
-5 -141 0
-6 -142 0
-7 -143 0
-8 -144 0
-1 -89 0
-2 -90 0
-3 -91 0
-4 -92 0
-5 -93 0
-6 -94 0
-7 -95 0
-8 -96 0
-1 -121 0
-2 -122 0
-3 -123 0
-4 -124 0
-5 -125 0
-6 -126 0
-7 -127 0
-8 -128 0
-1 -57 0
-2 -58 0
-3 -59 0
-4 -60 0
-5 -61 0
-6 -62 0
-7 -63 0
-8 -64 0
-9 -81 0
-10 -82 0
-11 -83 0
-12 -84 0
-13 -85 0
-14 -86 0
-15 -87 0
-16 -88 0
-9 -49 0
-10 -50 0
-11 -51 0
-12 -52 0
-13 -53 0
-14 -54 0
-15 -55 0
-16 -56 0
-9 -129 0
-10 -130 0
-11 -131 0
-12 -132 0
-13 -133 0
-14 -134 0
-15 -135 0
-16 -136 0
-9 -73 0
-10 -74 0
-11 -75 0
-12 -76 0
-13 -77 0
-14 -78 0
-15 -79 0
-16 -80 0
-9 -113 0
-10 -114 0
-11 -115 0
-12 -116 0
-13 -117 0
-14 -118 0
-15 -119 0
-16 -120 0
-9 -41 0
-10 -42 0
-11 -43 0
-12 -44 0
-13 -45 0
-14 -46 0
-15 -47 0
-16 -48 0
-9 -65 0
-10 -66 0
-11 -67 0
-12 -68 0
-13 -69 0
-14 -70 0
-15 -71 0
-16 -72 0
-9 -17 0
-10 -18 0
-11 -19 0
-12 -20 0
-13 -21 0
-14 -22 0
-15 -23 0
-16 -24 0
-9 -33 0
-10 -34 0
-11 -35 0
-12 -36 0
-13 -37 0
-14 -38 0
-15 -39 0
-16 -40 0
-9 -137 0
-10 -138 0
-11 -139 0
-12 -140 0
-13 -141 0
-14 -142 0
-15 -143 0
-16 -144 0
-9 -89 0
-10 -90 0
-11 -91 0
-12 -92 0
-13 -93 0
-14 -94 0
-15 -95 0
-16 -96 0
-9 -57 0
-10 -58 0
-11 -59 0
-12 -60 0
-13 -61 0
-14 -62 0
-15 -63 0
-16 -64 0
-17 -81 0
-18 -82 0
-19 -83 0
-20 -84 0
-21 -85 0
-22 -86 0
-23 -87 0
-24 -88 0
-17 -49 0
-18 -50 0
-19 -51 0
-20 -52 0
-21 -53 0
-22 -54 0
-23 -55 0
-24 -56 0
-17 -129 0
-18 -130 0
-19 -131 0
-20 -132 0
-21 -133 0
-22 -134 0
-23 -135 0
-24 -136 0
-17 -73 0
-18 -74 0
-19 -75 0
-20 -76 0
-21 -77 0
-22 -78 0
-23 -79 0
-24 -80 0
-17 -113 0
-18 -114 0
-19 -115 0
-20 -116 0
-21 -117 0
-22 -118 0
-23 -119 0
-24 -120 0
-17 -41 0
-18 -42 0
-19 -43 0
-20 -44 0
-21 -45 0
-22 -46 0
-23 -47 0
-24 -48 0
-17 -65 0
-18 -66 0
-19 -67 0
-20 -68 0
-21 -69 0
-22 -70 0
-23 -71 0
-24 -72 0
-17 -33 0
-18 -34 0
-19 -35 0
-20 -36 0
-21 -37 0
-22 -38 0
-23 -39 0
-24 -40 0
-17 -57 0
-18 -58 0
-19 -59 0
-20 -60 0
-21 -61 0
-22 -62 0
-23 -63 0
-24 -64 0
-17 -105 0
-18 -106 0
-19 -107 0
-20 -108 0
-21 -109 0
-22 -110 0
-23 -111 0
-24 -112 0
-17 -89 0
-18 -90 0
-19 -91 0
-20 -92 0
-21 -93 0
-22 -94 0
-23 -95 0
-24 -96 0
-17 -145 0
-18 -146 0
-19 -147 0
-20 -148 0
-21 -149 0
-22 -150 0
-23 -151 0
-24 -152 0
-17 -121 0
-18 -122 0
-19 -123 0
-20 -124 0
-21 -125 0
-22 -126 0
-23 -127 0
-24 -128 0
-25 -81 0
-26 -82 0
-27 -83 0
-28 -84 0
-29 -85 0
-30 -86 0
-31 -87 0
-32 -88 0
-25 -49 0
-26 -50 0
-27 -51 0
-28 -52 0
-29 -53 0
-30 -54 0
-31 -55 0
-32 -56 0
-25 -129 0
-26 -130 0
-27 -131 0
-28 -132 0
-29 -133 0
-30 -134 0
-31 -135 0
-32 -136 0
-25 -73 0
-26 -74 0
-27 -75 0
-28 -76 0
-29 -77 0
-30 -78 0
-31 -79 0
-32 -80 0
-25 -65 0
-26 -66 0
-27 -67 0
-28 -68 0
-29 -69 0
-30 -70 0
-31 -71 0
-32 -72 0
-25 -33 0
-26 -34 0
-27 -35 0
-28 -36 0
-29 -37 0
-30 -38 0
-31 -39 0
-32 -40 0
-25 -105 0
-26 -106 0
-27 -107 0
-28 -108 0
-29 -109 0
-30 -110 0
-31 -111 0
-32 -112 0
-25 -97 0
-26 -98 0
-27 -99 0
-28 -100 0
-29 -101 0
-30 -102 0
-31 -103 0
-32 -104 0
-25 -121 0
-26 -122 0
-27 -123 0
-28 -124 0
-29 -125 0
-30 -126 0
-31 -127 0
-32 -128 0
-25 -153 0
-26 -154 0
-27 -155 0
-28 -156 0
-29 -157 0
-30 -158 0
-31 -159 0
-32 -160 0
-25 -137 0
-26 -138 0
-27 -139 0
-28 -140 0
-29 -141 0
-30 -142 0
-31 -143 0
-32 -144 0
-25 -145 0
-26 -146 0
-27 -147 0
-28 -148 0
-29 -149 0
-30 -150 0
-31 -151 0
-32 -152 0
-33 -49 0
-34 -50 0
-35 -51 0
-36 -52 0
-37 -53 0
-38 -54 0
-39 -55 0
-40 -56 0
-33 -113 0
-34 -114 0
-35 -115 0
-36 -116 0
-37 -117 0
-38 -118 0
-39 -119 0
-40 -120 0
-33 -41 0
-34 -42 0
-35 -43 0
-36 -44 0
-37 -45 0
-38 -46 0
-39 -47 0
-40 -48 0
-33 -65 0
-34 -66 0
-35 -67 0
-36 -68 0
-37 -69 0
-38 -70 0
-39 -71 0
-40 -72 0
-33 -145 0
-34 -146 0
-35 -147 0
-36 -148 0
-37 -149 0
-38 -150 0
-39 -151 0
-40 -152 0
-33 -105 0
-34 -106 0
-35 -107 0
-36 -108 0
-37 -109 0
-38 -110 0
-39 -111 0
-40 -112 0
-33 -121 0
-34 -122 0
-35 -123 0
-36 -124 0
-37 -125 0
-38 -126 0
-39 -127 0
-40 -128 0
-33 -57 0
-34 -58 0
-35 -59 0
-36 -60 0
-37 -61 0
-38 -62 0
-39 -63 0
-40 -64 0
-33 -97 0
-34 -98 0
-35 -99 0
-36 -100 0
-37 -101 0
-38 -102 0
-39 -103 0
-40 -104 0
-33 -153 0
-34 -154 0
-35 -155 0
-36 -156 0
-37 -157 0
-38 -158 0
-39 -159 0
-40 -160 0
-41 -73 0
-42 -74 0
-43 -75 0
-44 -76 0
-45 -77 0
-46 -78 0
-47 -79 0
-48 -80 0
-41 -113 0
-42 -114 0
-43 -115 0
-44 -116 0
-45 -117 0
-46 -118 0
-47 -119 0
-48 -120 0
-41 -153 0
-42 -154 0
-43 -155 0
-44 -156 0
-45 -157 0
-46 -158 0
-47 -159 0
-48 -160 0
-41 -145 0
-42 -146 0
-43 -147 0
-44 -148 0
-45 -149 0
-46 -150 0
-47 -151 0
-48 -152 0
-41 -57 0
-42 -58 0
-43 -59 0
-44 -60 0
-45 -61 0
-46 -62 0
-47 -63 0
-48 -64 0
-41 -105 0
-42 -106 0
-43 -107 0
-44 -108 0
-45 -109 0
-46 -110 0
-47 -111 0
-48 -112 0
-41 -97 0
-42 -98 0
-43 -99 0
-44 -100 0
-45 -101 0
-46 -102 0
-47 -103 0
-48 -104 0
-41 -137 0
-42 -138 0
-43 -139 0
-44 -140 0
-45 -141 0
-46 -142 0
-47 -143 0
-48 -144 0
-41 -89 0
-42 -90 0
-43 -91 0
-44 -92 0
-45 -93 0
-46 -94 0
-47 -95 0
-48 -96 0
-49 -81 0
-50 -82 0
-51 -83 0
-52 -84 0
-53 -85 0
-54 -86 0
-55 -87 0
-56 -88 0
-49 -65 0
-50 -66 0
-51 -67 0
-52 -68 0
-53 -69 0
-54 -70 0
-55 -71 0
-56 -72 0
-49 -121 0
-50 -122 0
-51 -123 0
-52 -124 0
-53 -125 0
-54 -126 0
-55 -127 0
-56 -128 0
-49 -129 0
-50 -130 0
-51 -131 0
-52 -132 0
-53 -133 0
-54 -134 0
-55 -135 0
-56 -136 0
-49 -105 0
-50 -106 0
-51 -107 0
-52 -108 0
-53 -109 0
-54 -110 0
-55 -111 0
-56 -112 0
-49 -97 0
-50 -98 0
-51 -99 0
-52 -100 0
-53 -101 0
-54 -102 0
-55 -103 0
-56 -104 0
-49 -137 0
-50 -138 0
-51 -139 0
-52 -140 0
-53 -141 0
-54 -142 0
-55 -143 0
-56 -144 0
-57 -73 0
-58 -74 0
-59 -75 0
-60 -76 0
-61 -77 0
-62 -78 0
-63 -79 0
-64 -80 0
-57 -113 0
-58 -114 0
-59 -115 0
-60 -116 0
-61 -117 0
-62 -118 0
-63 -119 0
-64 -120 0
-57 -65 0
-58 -66 0
-59 -67 0
-60 -68 0
-61 -69 0
-62 -70 0
-63 -71 0
-64 -72 0
-57 -105 0
-58 -106 0
-59 -107 0
-60 -108 0
-61 -109 0
-62 -110 0
-63 -111 0
-64 -112 0
-57 -153 0
-58 -154 0
-59 -155 0
-60 -156 0
-61 -157 0
-62 -158 0
-63 -159 0
-64 -160 0
-57 -89 0
-58 -90 0
-59 -91 0
-60 -92 0
-61 -93 0
-62 -94 0
-63 -95 0
-64 -96 0
-57 -145 0
-58 -146 0
-59 -147 0
-60 -148 0
-61 -149 0
-62 -150 0
-63 -151 0
-64 -152 0
-57 -121 0
-58 -122 0
-59 -123 0
-60 -124 0
-61 -125 0
-62 -126 0
-63 -127 0
-64 -128 0
-65 -81 0
-66 -82 0
-67 -83 0
-68 -84 0
-69 -85 0
-70 -86 0
-71 -87 0
-72 -88 0
-65 -129 0
-66 -130 0
-67 -131 0
-68 -132 0
-69 -133 0
-70 -134 0
-71 -135 0
-72 -136 0
-65 -113 0
-66 -114 0
-67 -115 0
-68 -116 0
-69 -117 0
-70 -118 0
-71 -119 0
-72 -120 0
-65 -121 0
-66 -122 0
-67 -123 0
-68 -124 0
-69 -125 0
-70 -126 0
-71 -127 0
-72 -128 0
-65 -105 0
-66 -106 0
-67 -107 0
-68 -108 0
-69 -109 0
-70 -110 0
-71 -111 0
-72 -112 0
-65 -145 0
-66 -146 0
-67 -147 0
-68 -148 0
-69 -149 0
-70 -150 0
-71 -151 0
-72 -152 0
-73 -81 0
-74 -82 0
-75 -83 0
-76 -84 0
-77 -85 0
-78 -86 0
-79 -87 0
-80 -88 0
-73 -129 0
-74 -130 0
-75 -131 0
-76 -132 0
-77 -133 0
-78 -134 0
-79 -135 0
-80 -136 0
-73 -113 0
-74 -114 0
-75 -115 0
-76 -116 0
-77 -117 0
-78 -118 0
-79 -119 0
-80 -120 0
-73 -153 0
-74 -154 0
-75 -155 0
-76 -156 0
-77 -157 0
-78 -158 0
-79 -159 0
-80 -160 0
-73 -97 0
-74 -98 0
-75 -99 0
-76 -100 0
-77 -101 0
-78 -102 0
-79 -103 0
-80 -104 0
-73 -137 0
-74 -138 0
-75 -139 0
-76 -140 0
-77 -141 0
-78 -142 0
-79 -143 0
-80 -144 0
-73 -89 0
-74 -90 0
-75 -91 0
-76 -92 0
-77 -93 0
-78 -94 0
-79 -95 0
-80 -96 0
-73 -105 0
-74 -106 0
-75 -107 0
-76 -108 0
-77 -109 0
-78 -110 0
-79 -111 0
-80 -112 0
-73 -145 0
-74 -146 0
-75 -147 0
-76 -148 0
-77 -149 0
-78 -150 0
-79 -151 0
-80 -152 0
-81 -129 0
-82 -130 0
-83 -131 0
-84 -132 0
-85 -133 0
-86 -134 0
-87 -135 0
-88 -136 0
-81 -97 0
-82 -98 0
-83 -99 0
-84 -100 0
-85 -101 0
-86 -102 0
-87 -103 0
-88 -104 0
-81 -137 0
-82 -138 0
-83 -139 0
-84 -140 0
-85 -141 0
-86 -142 0
-87 -143 0
-88 -144 0
-81 -105 0
-82 -106 0
-83 -107 0
-84 -108 0
-85 -109 0
-86 -110 0
-87 -111 0
-88 -112 0
-81 -153 0
-82 -154 0
-83 -155 0
-84 -156 0
-85 -157 0
-86 -158 0
-87 -159 0
-88 -160 0
-81 -89 0
-82 -90 0
-83 -91 0
-84 -92 0
-85 -93 0
-86 -94 0
-87 -95 0
-88 -96 0
-81 -121 0
-82 -122 0
-83 -123 0
-84 -124 0
-85 -125 0
-86 -126 0
-87 -127 0
-88 -128 0
-89 -129 0
-90 -130 0
-91 -131 0
-92 -132 0
-93 -133 0
-94 -134 0
-95 -135 0
-96 -136 0
-89 -113 0
-90 -114 0
-91 -115 0
-92 -116 0
-93 -117 0
-94 -118 0
-95 -119 0
-96 -120 0
-89 -97 0
-90 -98 0
-91 -99 0
-92 -100 0
-93 -101 0
-94 -102 0
-95 -103 0
-96 -104 0
-89 -153 0
-90 -154 0
-91 -155 0
-92 -156 0
-93 -157 0
-94 -158 0
-95 -159 0
-96 -160 0
-89 -137 0
-90 -138 0
-91 -139 0
-92 -140 0
-93 -141 0
-94 -142 0
-95 -143 0
-96 -144 0
-97 -129 0
-98 -130 0
-99 -131 0
-100 -132 0
-101 -133 0
-102 -134 0
-103 -135 0
-104 -136 0
-97 -113 0
-98 -114 0
-99 -115 0
-100 -116 0
-101 -117 0
-102 -118 0
-103 -119 0
-104 -120 0
-97 -105 0
-98 -106 0
-99 -107 0
-100 -108 0
-101 -109 0
-102 -110 0
-103 -111 0
-104 -112 0
-97 -153 0
-98 -154 0
-99 -155 0
-100 -156 0
-101 -157 0
-102 -158 0
-103 -159 0
-104 -160 0
-97 -137 0
-98 -138 0
-99 -139 0
-100 -140 0
-101 -141 0
-102 -142 0
-103 -143 0
-104 -144 0
-97 -145 0
-98 -146 0
-99 -147 0
-100 -148 0
-101 -149 0
-102 -150 0
-103 -151 0
-104 -152 0
-97 -121 0
-98 -122 0
-99 -123 0
-100 -124 0
-101 -125 0
-102 -126 0
-103 -127 0
-104 -128 0
-105 -153 0
-106 -154 0
-107 -155 0
-108 -156 0
-109 -157 0
-110 -158 0
-111 -159 0
-112 -160 0
-105 -145 0
-106 -146 0
-107 -147 0
-108 -148 0
-109 -149 0
-110 -150 0
-111 -151 0
-112 -152 0
-105 -121 0
-106 -122 0
-107 -123 0
-108 -124 0
-109 -125 0
-110 -126 0
-111 -127 0
-112 -128 0
-105 -137 0
-106 -138 0
-107 -139 0
-108 -140 0
-109 -141 0
-110 -142 0
-111 -143 0
-112 -144 0
-113 -129 0
-114 -130 0
-115 -131 0
-116 -132 0
-117 -133 0
-118 -134 0
-119 -135 0
-120 -136 0
-113 -153 0
-114 -154 0
-115 -155 0
-116 -156 0
-117 -157 0
-118 -158 0
-119 -159 0
-120 -160 0
-113 -137 0
-114 -138 0
-115 -139 0
-116 -140 0
-117 -141 0
-118 -142 0
-119 -143 0
-120 -144 0
-113 -145 0
-114 -146 0
-115 -147 0
-116 -148 0
-117 -149 0
-118 -150 0
-119 -151 0
-120 -152 0
-121 -153 0
-122 -154 0
-123 -155 0
-124 -156 0
-125 -157 0
-126 -158 0
-127 -159 0
-128 -160 0
-121 -145 0
-122 -146 0
-123 -147 0
-124 -148 0
-125 -149 0
-126 -150 0
-127 -151 0
-128 -152 0
-129 -137 0
-130 -138 0
-131 -139 0
-132 -140 0
-133 -141 0
-134 -142 0
-135 -143 0
-136 -144 0
-137 -153 0
-138 -154 0
-139 -155 0
-140 -156 0
-141 -157 0
-142 -158 0
-143 -159 0
-144 -160 0
-145 -153 0
-146 -154 0
-147 -155 0
-148 -156 0
-149 -157 0
-150 -158 0
-151 -159 0
-152 -160 0
1 2 3 4 5 6 7 8 0
9 10 11 12 13 14 15 16 0
17 18 19 20 21 22 23 24 0
25 26 27 28 29 30 31 32 0
33 34 35 36 37 38 39 40 0
41 42 43 44 45 46 47 48 0
49 50 51 52 53 54 55 56 0
57 58 59 60 61 62 63 64 0
65 66 67 68 69 70 71 72 0
73 74 75 76 77 78 79 80 0
81 82 83 84 85 86 87 88 0
89 90 91 92 93 94 95 96 0
97 98 99 100 101 102 103 104 0
105 106 107 108 109 110 111 112 0
113 114 115 116 117 118 119 120 0
121 122 123 124 125 126 127 128 0
129 130 131 132 133 134 135 136 0
137 138 139 140 141 142 143 144 0
145 146 147 148 149 150 151 152 0
153 154 155 156 157 158 159 160 0
